n_trains = 20;
n_tracks = 5;
tracks = [{1, 2},{3, 4, 5},{6, 7, 8, 9, 10},{11, 12, 13, 14, 15},{16, 17, 18, 19, 20}];
arrival_order = [17, 1, 14, 4, 7, 19, 20, 9, 16, 3, 11, 5, 12, 10, 8, 13, 2, 6, 15, 18];
departure_order = [20, 19, 18, 17, 16, 15, 14, 13, 12, 11, 10, 9, 8, 7, 6, 5, 4, 3, 2, 1];
